(declare-const delta_pos1 Int)
(declare-const delta_return@pos Int)
(declare-const delta_pos0@pos Int)
(declare-const delta___cil_tmp9 Int)
(declare-const delta_pos0@width Int)
(declare-const delta_param0@pos Int)
(declare-const delta_pos1@width Int)
(declare-const delta_val0 Int)
(declare-const delta_pos1@pos Int)
(declare-const delta_return Int)
(declare-const delta_return@width Int)
(declare-const delta_param0@width Int)
(declare-const delta___cil_tmp10 Int)
(declare-const delta_param0 Int)
(declare-const delta_pos0 Int)
(declare-const delta_val1 Int)
(assert (exists
         ((|pos1@width'?1| Int) (|pos0@width'?2| Int) (|pos1@pos'?3| Int)
            (|pos0@pos'?4| Int) (|__cil_tmp10'?5| Int) (|__cil_tmp9'?6| Int)
            (|val1'?7| Int) (|val0'?8| Int) (|pos1'?9| Int) (|pos0'?10| Int)
            (type_err?11 Int) (type_err?12 Int) (tr?13 Int) (tr?14 Int)
            (|param0@width'?15| Int) (|return@width'?16| Int)
            (|param0@pos'?17| Int) (|return@pos'?18| Int) (|param0'?19| Int)
            (|return'?20| Int) (tr?21 Int) (type_err?22 Int)
            (type_err?23 Int) (tr?24 Int) (val1?25 Int) (val0?26 Int)
            (__cil_tmp10?27 Int) (__cil_tmp9?28 Int) (pos1?29 Int)
            (pos1@pos?30 Int) (pos1@width?31 Int) (pos0?32 Int)
            (pos0@pos?33 Int) (pos0@width?34 Int) (return@width?35 Int)
            (return@pos?36 Int) (return?37 Int) (param0@width?38 Int)
            (param0@pos?39 Int) (param0?40 Int))
         (and (or (<= (+ (- tr?24) tr?21 1) 0) (<= (+ tr?24 (- tr?21) 1) 0))
                (<= (+ (- tr?13) tr?14) 0)
                (= (+ (- type_err?22) |param0@width'?15|) 0)
                (= (+ (- type_err?11) |return@width'?16|) 0)
                (= (+ |pos1@width'?1| (- type_err?22)) 0)
                (= (+ |pos0@width'?2| (- type_err?22)) 0)
                (= (+ (- type_err?23) |param0@pos'?17|) 0)
                (= (+ (- type_err?12) |return@pos'?18|) 0)
                (= (+ |pos1@pos'?3| (- type_err?23)) 0)
                (= (+ |pos0@pos'?4| (- type_err?23)) 0)
                (= (+ |param0'?19| (- tr?24)) 0)
                (= (+ |return'?20| (- tr?13)) 0)
                (= (+ |__cil_tmp10'?5| (- tr?21)) 0)
                (= (+ |__cil_tmp9'?6| (- tr?24)) 0)
                (= (+ |val1'?7| (- tr?13)) 0) (= (+ |val0'?8| (- tr?14)) 0)
                (= (+ |pos1'?9| (- tr?24)) 0) (= (+ |pos0'?10| (- tr?24)) 0)
                (= delta_pos0 (+ |pos0'?10| (- pos0?32)))
                (= delta_pos1 (+ |pos1'?9| (- pos1?29)))
                (= delta_val0 (+ |val0'?8| (- val0?26)))
                (= delta_val1 (+ |val1'?7| (- val1?25)))
                (= delta___cil_tmp9 (+ |__cil_tmp9'?6| (- __cil_tmp9?28)))
                (= delta___cil_tmp10 (+ |__cil_tmp10'?5| (- __cil_tmp10?27)))
                (= delta_return (+ |return'?20| (- return?37)))
                (= delta_param0 (+ |param0'?19| (- param0?40)))
                (= delta_pos0@pos (+ |pos0@pos'?4| (- pos0@pos?33)))
                (= delta_pos1@pos (+ |pos1@pos'?3| (- pos1@pos?30)))
                (= delta_return@pos (+ |return@pos'?18| (- return@pos?36)))
                (= delta_param0@pos (+ |param0@pos'?17| (- param0@pos?39)))
                (= delta_pos0@width (+ |pos0@width'?2| (- pos0@width?34)))
                (= delta_pos1@width (+ |pos1@width'?1| (- pos1@width?31)))
                (= delta_return@width (+ |return@width'?16|
                                           (- return@width?35)))
                (= delta_param0@width (+ |param0@width'?15|
                                           (- param0@width?38))))))
(check-sat)
